c SAT Generator for power-law distributed variable frequencies
c -g u -v 20 -c 91 -k 3 -p 2.750000 -b 3.200000 -f /home/schmidt/Devel/ni-kop-sat/data/ensemble/ruf20-91/ruf20-91-111 -u 1 -U 1 -s 181805882
p cnf 20 91
2 3 -13 0
-8 9 -10 0
4 -10 16 0
-6 -7 10 0
-8 18 20 0
-15 -17 18 0
-9 -12 -14 0
-4 14 16 0
-2 7 -18 0
-4 -8 20 0
-1 -14 18 0
5 -7 19 0
-4 -18 -20 0
2 8 13 0
-2 10 -16 0
-2 8 15 0
7 17 -20 0
-8 -17 19 0
4 -10 11 0
-3 -7 19 0
14 -16 -18 0
7 9 14 0
8 -9 -14 0
-3 -8 -10 0
-11 -17 -19 0
6 -14 -16 0
9 -12 -18 0
2 -5 -19 0
7 -11 -20 0
-5 11 15 0
-4 16 -19 0
6 14 15 0
6 -8 13 0
3 -6 -12 0
-2 -7 15 0
6 -13 18 0
6 -11 19 0
4 12 -14 0
-5 18 -20 0
-5 -11 -14 0
-10 -15 19 0
8 9 12 0
10 -17 20 0
2 -8 -13 0
-5 -11 -12 0
-4 7 11 0
-1 3 17 0
11 19 20 0
3 -7 16 0
-7 11 -13 0
-7 10 19 0
-2 8 -16 0
-1 -10 -18 0
-16 -17 -20 0
8 13 18 0
-7 -15 -16 0
-5 12 19 0
-7 11 16 0
-1 8 -20 0
1 -7 -16 0
-2 -5 -7 0
1 -5 13 0
-2 -6 -12 0
10 17 -19 0
-4 18 19 0
-13 15 -20 0
2 7 13 0
-3 6 8 0
5 11 17 0
12 -13 -16 0
7 13 18 0
5 16 -17 0
-7 -11 12 0
-5 19 20 0
-7 10 -20 0
5 13 -18 0
8 -12 13 0
10 13 20 0
-5 15 -17 0
-1 17 -19 0
11 15 -18 0
16 -17 20 0
10 -12 16 0
11 17 19 0
-4 -5 11 0
-2 15 20 0
-4 -8 19 0
-3 -11 20 0
1 2 -19 0
6 11 18 0
-10 17 19 0
